CMD:
./solvers/bin/cadical --plain --no-reduce -t 1600 ./data/cnfs//intel007/intel007.17.cnf

c --- [ banner ] -------------------------------------------------------------
c 
c CaDiCaL SAT Solver
c Copyright (c) 2016-2024
c A. Biere, M. Fleury, N. Froleyks, K. Fazekas, F. Pollitt, T. Faller
c JKU Linz, University of Freiburg, TU Wien
c 
c Version 2.1.3 5296d3d2a9bf48c154ab2acb5e44625776d821bf
c g++ (Gentoo 12.3.1_p20230526 p2) 12.3.1 20230526 -Wall -Wextra -O3 -DNDEBUG
c Sat Aug 9 07:26:21 PDT 2025 Linux cedar2.int.cedar.computecanada.ca 5.14.0-362.24.2.el9_3.x86_64 x86_64
c 
c --- [ limit ] --------------------------------------------------------------
c 
c setting time limit to 1600 seconds real time (due to '-t 1600')
c 
c --- [ parsing input ] ------------------------------------------------------
c 
c reading DIMACS file from './data/cnfs//intel007/intel007.17.cnf'
c opening file to read './data/cnfs//intel007/intel007.17.cnf'
c found 'p cnf 229740 616259' header
c parsed 616259 clauses in 0.15 seconds process time
c 
c --- [ options ] ------------------------------------------------------------
c 
c   --compact=false                (different from default 'true')
c   --decompose=false              (different from default 'true')
c   --deduplicate=false            (different from default 'true')
c   --elim=false                   (different from default 'true')
c   --probe=false                  (different from default 'true')
c   --reduce=false                 (different from default 'true')
c   --subsume=false                (different from default 'true')
c   --ternary=false                (different from default 'true')
c   --transred=false               (different from default 'true')
c   --vivify=false                 (different from default 'true')
c 
c --- [ solving ] ------------------------------------------------------------
c 
c time measured in process time since initialization
c 
c  seconds   reductions  redundant  irredundant
c          MB    restarts       trail       variables
c           level   conflicts       glue          remaining
c 
c *  0.15 103  0 0   0    0    0  0% 0 611091 158728 69%
c {  0.15 103  0 0   0    0    0  0% 0 611091 158728 69%
c i  0.21 105 772 0   2   64   56 43% 2 611091 158727 69%
c i  0.27 105 276 0   9  378  359 39% 2 611091 158512 69%
c }  0.50 105 125 0 159 1000  920 37% 4 611091 158512 69%
c [  0.50 105  0 0 159 1000  920  0% 0 611091 158512 69%
c O  0.51 105 313 0 159 1003  923 38% 5 611091 158512 69%
c ]  1.16 106 871 0 160 3000 2716 45% 7 611091 158512 69%
c {  1.16 106 125 0 160 3000 2716 37% 4 611091 158512 69%
c F  1.17 106 125 0 162 3006 2722 37% 4 611091 158512 69%
c i  1.32 106 94 0 251 3394 3025 38% 4 611091 158511 69%
c i  1.35 106 88 0 260 3500 3077 38% 4 611091 157807 69%
c i  1.35 106 86 0 260 3536 3110 38% 4 611091 155359 68%
c i  1.37 106 82 0 260 3618 3136 38% 4 611091 154045 67%
c i  1.39 106 81 0 262 3668 3174 38% 4 611091 153549 67%
c i  1.40 106 81 0 263 3672 3177 38% 4 611091 152181 66%
c i  1.43 106 78 0 267 3739 3219 38% 4 611091 150810 66%
c i  1.52 106 73 0 267 3885 3314 39% 4 611091 150448 65%
c i  1.55 106 71 0 267 3945 3367 39% 4 611091 150086 65%
c i  1.56 106 71 0 267 3947 3368 39% 4 611091 149932 65%
c 
c  seconds   reductions  redundant  irredundant
c          MB    restarts       trail       variables
c           level   conflicts       glue          remaining
c 
c i  1.57 106 70 0 267 3979 3384 39% 4 611091 136799 60%
c i  1.58 106 69 0 267 3989 3392 39% 4 611091 136785 60%
c i  1.58 106 68 0 267 4016 3410 39% 4 611091 136774 60%
c i  1.59 106 68 0 267 4032 3420 39% 4 611091 134880 59%
c i  1.59 106 68 0 267 4036 3423 39% 4 611091 133323 58%
c i  1.59 106 68 0 267 4038 3424 39% 4 611091 131919 57%
c }  1.59 106 68 0 267 4040 3424 39% 4 611091 129762 56%
c 0  1.59 106 68 0 267 4040 3424 39% 4 611091 129762 56%
c 
c --- [ result ] -------------------------------------------------------------
c 
s UNSATISFIABLE
c 
c --- [ run-time profiling ] -------------------------------------------------
c 
c process time taken by individual solving procedures
c (percentage relative to process time for solving)
c 
c         1.44   99.99% search
c         0.77   53.67% unstable
c         0.66   45.91% stable
c         0.15   10.19% parse
c         0.01    0.40% lucky
c         0.00    0.00% simplify
c   =================================
c         1.44   90.72% solve
c 
c last line shows process time for solving
c (percentage relative to total process time)
c 
c --- [ statistics ] ---------------------------------------------------------
c 
c chronological:              1204        29.80 %  of conflicts
c conflicts:                  4040      2805.58    per second
c decisions:                 31012     21536.26    per second
c fixed:                     99978        43.52 %  of all variables
c learned:                    3945        97.65 %  per conflict
c learned_lits:             154084       100.00 %  learned literals
c minimized:                     0         0.00 %  learned literals
c shrunken:                  71472        46.39 %  learned literals
c minishrunken:              26333        17.09 %  learned literals
c otfs:                         10         0.25 %  of conflict
c propagations:           15934275        11.07 M  per second
c rephased:                      2      2020.00    interval
c restarts:                    267        15.13    interval
c stabilizing:                   1        49.50 %  of conflicts
c subsumed:                    503         0.08 %  of all clauses
c strengthened:                  9         0.00 %  of all clauses
c 
c seconds are measured in process time for solving
c 
c --- [ resources ] ----------------------------------------------------------
c 
c total process time since initialization:         1.59    seconds
c total real time since initialization:            1.60    seconds
c maximum resident set size of process:          104.23    MB
c 
c --- [ shutting down ] ------------------------------------------------------
c 
c exit 20
